p edge 25 32
e 0 5
e 0 7
e 1 10
e 1 23
e 2 9
e 2 10
e 2 11
e 3 14
e 3 22
e 3 23
e 4 9
e 4 21
e 5 11
e 5 21
e 5 22
e 6 9
e 6 18
e 9 10
e 9 12
e 9 17
e 10 13
e 10 16
e 10 21
e 10 22
e 11 13
e 11 14
e 12 13
e 13 19
e 14 21
e 14 24
e 15 16
e 16 23
